% ----DATA VARIABLES----

t=15;%number of attributes
k=3;%max length of the support set
n=30;%number of positive instances
m=30;%number of negative instances
c=5;%number of atMostOne Constraints

% ----OMEGAS----

omegap= [| 1, 0, 1, 0, 0, 1, 1, 1, 1, 1, 0, 0, 0, 1, 0|
 1, 1, 0, 0, 0, 1, 1, 0, 1, 1, 0, 1, 0, 0, 0|
 0, 1, 1, 1, 0, 1, 0, 0, 1, 1, 0, 0, 1, 1, 1|
 1, 1, 1, 0, 1, 0, 1, 1, 1, 0, 1, 1, 0, 0, 1|
 0, 1, 1, 1, 0, 0, 1, 1, 1, 1, 0, 1, 0, 1, 0|
 1, 1, 1, 0, 0, 0, 0, 1, 1, 1, 0, 1, 0, 1, 0|
 1, 0, 0, 1, 0, 0, 0, 1, 1, 0, 0, 1, 0, 1, 1|
 0, 0, 0, 0, 1, 0, 0, 1, 1, 0, 0, 1, 0, 0, 1|
 1, 1, 1, 1, 0, 1, 0, 1, 0, 0, 0, 1, 1, 0, 1|
 0, 1, 0, 0, 0, 0, 0, 1, 1, 1, 0, 1, 0, 1, 1|
 1, 1, 0, 1, 0, 1, 1, 1, 0, 1, 1, 0, 1, 0, 0|
 0, 0, 1, 0, 1, 0, 1, 1, 1, 1, 1, 1, 1, 0, 1|
 0, 0, 1, 1, 1, 0, 1, 1, 1, 1, 0, 1, 0, 1, 0|
 0, 0, 1, 1, 0, 0, 1, 0, 1, 1, 1, 0, 0, 0, 0|
 0, 0, 1, 0, 0, 0, 1, 0, 1, 0, 0, 1, 1, 0, 0|
 0, 0, 1, 1, 1, 0, 0, 0, 1, 0, 1, 0, 1, 0, 0|
 1, 0, 0, 0, 1, 0, 0, 0, 1, 1, 1, 1, 1, 0, 1|
 0, 0, 1, 1, 1, 0, 0, 1, 0, 0, 0, 1, 1, 1, 0|
 1, 0, 1, 1, 0, 0, 0, 0, 0, 0, 0, 0, 1, 0, 1|
 1, 0, 0, 1, 0, 1, 0, 1, 0, 0, 0, 1, 0, 0, 0|
 1, 1, 0, 0, 0, 0, 0, 0, 0, 0, 0, 1, 1, 1, 1|
 1, 1, 0, 0, 0, 0, 1, 1, 0, 1, 0, 0, 0, 0, 1|
 1, 1, 0, 0, 0, 1, 1, 1, 1, 0, 0, 1, 1, 0, 0|
 0, 0, 0, 0, 1, 1, 1, 0, 1, 1, 0, 1, 1, 1, 1|
 0, 1, 1, 0, 1, 0, 1, 1, 0, 1, 1, 0, 0, 0, 1|
 0, 1, 0, 1, 0, 1, 1, 1, 1, 1, 1, 0, 0, 1, 1|
 1, 0, 0, 0, 1, 1, 0, 0, 0, 0, 0, 0, 0, 0, 1|
 0, 1, 1, 1, 0, 1, 0, 0, 1, 0, 1, 0, 0, 1, 0|
 1, 1, 0, 0, 1, 1, 1, 0, 1, 0, 0, 1, 0, 0, 1|
 1, 1, 0, 0, 1, 1, 1, 1, 0, 1, 1, 0, 0, 0, 0|];

omegan= [| 0, 0, 1, 1, 1, 1, 1, 0, 1, 0, 0, 1, 0, 1, 1|
 0, 1, 0, 0, 0, 1, 0, 1, 0, 0, 0, 1, 1, 1, 1|
 1, 1, 1, 0, 0, 1, 1, 1, 1, 1, 0, 0, 0, 1, 1|
 1, 1, 1, 1, 0, 0, 1, 1, 1, 1, 1, 1, 1, 1, 0|
 1, 1, 0, 1, 0, 1, 1, 0, 0, 1, 1, 0, 1, 0, 1|
 0, 0, 0, 0, 1, 1, 0, 1, 0, 0, 0, 0, 0, 0, 1|
 0, 1, 0, 0, 0, 1, 1, 0, 0, 0, 0, 1, 0, 0, 1|
 0, 1, 1, 1, 0, 1, 0, 0, 0, 0, 1, 0, 0, 1, 1|
 0, 0, 1, 0, 0, 0, 0, 1, 1, 0, 1, 1, 1, 0, 0|
 1, 0, 1, 0, 0, 0, 0, 1, 0, 0, 0, 0, 0, 0, 0|
 0, 1, 1, 1, 1, 1, 1, 0, 1, 1, 0, 0, 0, 0, 0|
 1, 0, 1, 1, 1, 1, 1, 1, 1, 1, 1, 0, 0, 0, 1|
 0, 0, 0, 0, 1, 0, 1, 1, 0, 0, 0, 0, 0, 1, 0|
 1, 0, 1, 1, 0, 1, 0, 0, 0, 1, 0, 1, 1, 1, 0|
 0, 0, 0, 1, 1, 1, 0, 0, 1, 1, 1, 1, 1, 1, 1|
 0, 1, 0, 1, 1, 1, 0, 0, 0, 0, 0, 1, 1, 0, 1|
 1, 0, 0, 1, 0, 1, 1, 0, 0, 0, 1, 1, 0, 0, 0|
 1, 1, 0, 0, 1, 0, 0, 1, 0, 1, 1, 1, 0, 1, 1|
 1, 1, 1, 1, 0, 1, 0, 0, 0, 0, 1, 1, 0, 0, 0|
 1, 0, 1, 1, 1, 1, 1, 0, 1, 0, 0, 0, 1, 0, 1|
 0, 1, 1, 0, 0, 0, 1, 0, 1, 0, 1, 0, 1, 1, 1|
 0, 0, 1, 0, 0, 0, 1, 1, 0, 1, 1, 1, 0, 0, 1|
 0, 1, 0, 1, 0, 0, 0, 0, 0, 1, 1, 1, 0, 0, 0|
 1, 1, 0, 1, 1, 1, 1, 1, 0, 1, 1, 1, 1, 0, 1|
 1, 0, 1, 1, 1, 1, 0, 1, 0, 0, 0, 0, 1, 0, 0|
 1, 1, 1, 0, 1, 0, 0, 1, 0, 0, 0, 1, 0, 1, 1|
 0, 1, 1, 0, 0, 1, 1, 0, 0, 1, 1, 1, 1, 1, 1|
 0, 0, 1, 1, 0, 1, 0, 0, 0, 0, 0, 0, 0, 0, 0|
 0, 1, 1, 0, 0, 0, 1, 0, 0, 0, 1, 0, 0, 1, 0|
 1, 1, 1, 0, 0, 1, 0, 1, 0, 0, 0, 1, 0, 1, 0|];

% ----CONSTRAINS----

atMostOne=[{14, 12, 4, 6}, {3, 6, 13, 6, 4, 3}, {2, 1, 14, 8, 1}, {5, 13, 9, 3, 5, 1}, {4, 12, 1, 9, 9, 8}];